p cnf 10 50
5 2 -1 0
-4 10 7 0
-3 9 6 0
4 6 -8 0
-10 -9 2 0
1 -7 8 0
-4 -7 -1 0
1 -6 8 0
-5 7 6 0
3 -2 -7 0
2 -9 4 0
-1 -4 -3 0
5 -10 -3 0
10 2 -3 0
-10 -9 7 0
-3 -2 -7 0
1 7 9 0
3 8 10 0
2 1 8 0
8 1 6 0
-7 -4 -3 0
-2 -10 5 0
-7 -1 -8 0
-2 9 -10 0
5 9 4 0
10 -4 5 0
-3 -9 1 0
-7 8 4 0
7 -1 -8 0
-7 2 3 0
-5 7 8 0
-4 -8 7 0
-10 9 -2 0
-1 -6 9 0
-10 6 -3 0
-3 5 -10 0
6 7 -9 0
-7 2 -10 0
8 -7 3 0
1 -9 -2 0
10 -5 -3 0
-2 5 9 0
-5 2 8 0
-5 -8 2 0
-7 3 5 0
10 9 2 0
-9 -4 2 0
6 -3 -2 0
-5 6 -1 0
3 -1 -8 0
